============================[ Problem Statistics ]=============================|                                                                             ||  Number of variables:          4242                                         ||  Number of clauses:            9709                                         ||  Parse time:                   0.11 s                                       ||                                                                             |============================[ Search Statistics ]==============================| Conflicts |          ORIGINAL         |          LEARNT          | Progress ||           |    Vars  Clauses Literals |    Limit  Clauses Lit/Cl |          |==============================================================================================================================================================restarts              : 1conflicts             : 70             (391 /sec)decisions             : 156            (0.00 % random) (872 /sec)propagations          : 8177           (45682 /sec)conflict literals     : 3422           (95.94 % deleted)CPU time              : 0.179 sSATISFIABLE